p cnf 11 21
-11 10 -2 0
-11 -9 -3 0
11 8 -5 0
-11 7 1 0
-11 -7 1 0
11 7 -1 0
11 6 5 0
11 6 -3 0
-11 -3 2 0
-10 9 -4 0
-10 4 2 0
10 -3 1 0
9 -8 -6 0
-9 8 2 0
9 7 -2 0
9 7 1 0
9 6 -5 0
-9 -6 3 0
8 -7 3 0
7 5 2 0
-6 -2 1 0
